n_res = 5;
rcap = [20, 19, 102, 100, 96];
rtype = [1, 1, 2, 2, 2];
n_tasks = 16;
modes = [ {1, 2, 3}, {4, 5, 6}, {7, 8, 9}, {10, 11, 12}, {13, 14, 15}, {16, 17, 18}, {19, 20, 21}, {22, 23, 24}, {25, 26, 27}, {28, 29, 30}, {31, 32, 33}, {34, 35, 36}, {37, 38, 39}, {40, 41, 42}, {43, 44, 45}, {46, 47, 48} ];
succ = [ {5, 10, 11}, {14, 16}, {4, 5}, {6, 7, 8}, {6, 7, 15}, {9, 13}, {9}, {9, 13, 15}, {12}, {12, 15}, {12}, {14, 16}, {14, 16}, {}, {}, {} ];
n_opt = 48;
dur = [4, 5, 6, 1, 1, 9, 1, 2, 4, 1, 8, 10, 4, 5, 9, 1, 9, 9, 1, 8, 10, 2, 9, 10, 5, 7, 9, 1, 7, 8, 3, 5, 6, 1, 2, 4, 3, 3, 6, 8, 9, 10, 3, 10, 10, 3, 4, 5];
rreq = [|  0,  0,  0, 10, 10,  3,  0,  0, 10,  9,  0,  0,  0,  0,  0,  0,  5,  6,  0,  5,  0,  5,  4,  0,  0,  0, 10,  0,  7,  0, 10,  0,  0,  5,  0,  0,  3,  0,  4,  0,  0,  0,  0,  8,  0,  7,  7,  0
        |  8,  7,  6,  0,  0,  0,  7,  6,  0,  0,  5,  4,  9,  4,  3, 10,  0,  0,  5,  0,  4,  0,  0,  6,  7,  5,  0,  4,  0,  3,  0,  5,  3,  0,  6,  5,  0,  6,  0,  4,  2,  1,  7,  0,  5,  0,  0,  6
        |  4,  4,  3,  9,  7,  6,  8,  7,  5,  4,  3,  3,  9,  7,  6,  8,  6,  6,  6,  5,  4,  7,  6,  5,  9,  8,  5,  8,  8,  8,  7,  7,  7,  9,  6,  2,  3,  3,  3,  1,  1,  1,  9,  9,  8,  9,  6,  6
        |  6,  6,  3,  8, 10,  4,  2,  1,  1,  7,  5,  5,  5,  4,  3,  7,  5,  2, 10,  8,  5,  7,  4,  2,  8,  7,  7,  8,  8,  7,  8,  7,  3,  9,  4,  4,  6,  8,  3,  5,  3,  2,  7,  4,  4,  6,  5,  5
        |  5,  3,  3,  5,  4,  4,  6,  4,  3,  7,  7,  6,  2,  2,  2,  8,  6,  6,  7,  7,  6,  8,  7,  6,  7,  6,  6,  6,  5,  5,  6,  6,  5,  4,  3,  3, 10, 10, 10,  8,  6,  6,  5,  4,  2,  8,  7,  6 |];
